 &bands
    prefix='si',
    outdir='/Users/virgrammid/Desktop/Lab/si/tmp'
    filband = 'bands.dat'
    lsym=.true.
/
