 &control
    calculation='nscf'
    prefix='al',
    pseudo_dir = '/Users/virgrammid/Desktop/Lab/al/pseudo'
    outdir='/Users/virgrammid/Desktop/Lab/al/tmp'

/

&system   
    ibrav=  2, celldm(1) =7.6310796278640005, nat=  1, ntyp= 1, ecutwfc =40.0,
    occupations='smearing', smearing='marzari-vanderbilt', degauss=0.05
 /
 &electrons
    diagonalization='cg'
    mixing_beta = 0.7
    conv_thr = 1.0e-10

/

ATOMIC_SPECIES
 Al  26.98  Al.pbe-n-kjpaw_psl.1.0.0.UPF

ATOMIC_POSITIONS alat
 Al 0.00 0.00 0.00



K_POINTS crystal_b
#  tpiba = k-points in units of 2pi/a
#  number of k-points
 5
#  kx, ky, kz, wk  (wk=symmetry weight is ignored in bands calculations)
   0.5 0.5 0.5  50
   0.0 0.0 0.0  50
   0.5 0.0 0.5  50
   0.5 0.25 0.75  50
   0.0 0.0 0.0  50


