 &control
    calculation='scf'
    prefix='al',
    pseudo_dir = '/Users/virgrammid/Desktop/Lab/al/pseudo'
    outdir='/Users/virgrammid/Desktop/Lab/al/tmp'

 /
 &system   
    ibrav=  2, celldm(1) =7.6310796278640005, nat=  1, ntyp= 1, ecutwfc =40.0,
    occupations='smearing', smearing='marzari-vanderbilt', degauss=0.05
 
 /
 &electrons
    diagonalization='cg'
    mixing_beta = 0.7

 /

ATOMIC_SPECIES
 Al  26.98  Al.pbe-n-kjpaw_psl.1.0.0.UPF
ATOMIC_POSITIONS alat
 Al 0.00 0.00 0.00

K_POINTS automatic
 36 36 36 1 1 1

